param set_len = 28;
param target = 62770007;
param values := [0] 8296849 [1] 3719751 [2] 5786155 [3] 6212908 [4] 7360010 [5] 1429940 [6] 4329116 [7] 3813435 [8] 4355818 [9] 1244382 [10] 8168477 [11] 7176742 [12] 5213347 [13] 2991562 [14] 2083183 [15] 309433 [16] 6147701 [17] 342549 [18] 683062 [19] 2602681 [20] 5110693 [21] 2599303 [22] 2378793 [23] 946254 [24] 7568038 [25] 3494685 [26] 2515432 [27] 7780243 ;
